************************************************************************
file with basedata            : mm18_.bas
initial value random generator: 1930592064
************************************************************************
projects                      :  1
jobs (incl. supersource/sink ):  12
horizon                       :  75
RESOURCES
  - renewable                 :  2   R
  - nonrenewable              :  2   N
  - doubly constrained        :  0   D
************************************************************************
PROJECT INFORMATION:
pronr.  #jobs rel.date duedate tardcost  MPM-Time
    1     10      0       16        5       16
************************************************************************
PRECEDENCE RELATIONS:
jobnr.    #modes  #successors   successors
   0        1          3           1   2   3
   1        3          1           9
   2        3          3           4   5   6
   3        3          2           7   9
   4        3          2           7   9
   5        3          1           7
   6        3          2           8  10
   7        3          1          10
   8        3          1          11
   9        3          1          11
  10        3          1          11
  11        1          0        
************************************************************************
REQUESTS/DURATIONS:
jobnr. mode duration  R 1  R 2  R 3  R 4  E(W 1)
------------------------------------------------------------------------
  0      1     0       0    0    0    0     0
  1      1     2       3    0    0    2    10
  2      1     3       0    8    8    0    48
  3      1     3       0    4    6    0    30
  4      1     2       4    0    0    6    20
  5      1     4       9    0    5    0    56
  6      1     2       0    2    7    0    18
  7      1     5       4    0    0    9    65
  8      1     1       0    9    5    0    14
  9      1     1       6    0    0    8    14
 10      1     4       0    6    8    0    56
 11      1     0       0    0    0    0     0
************************************************************************
RESOURCEAVAILABILITIES:
  R 1
   85
************************************************************************
RESOURCE LIMITS:
jobnr.  l(R 1)  u(R 1)
------------------------------------------------------------------------
  0        0       0
  1        3       5
  2        8      16
  3        5      10
  4        5      10
  5        8      14
  6        5       9
  7        7      13
  8        8      14
  9        7      14
 10        7      14
 11        0       0
************************************************************************
SCENARIOS:
------------------------------------------------------------------------
RESOURCE k = 1
s = 1: (0, 12, 51, 46, 24, 42, 21, 78, 17, 17, 42, 0)
s = 2: (0, 10, 55, 28, 22, 35, 13, 82, 9, 9, 31, 0)
s = 3: (0, 17, 32, 38, 21, 71, 26, 41, 16, 10, 64, 0)
s = 4: (0, 18, 34, 20, 28, 70, 16, 87, 11, 9, 78, 0)
s = 5: (0, 9, 70, 19, 31, 74, 18, 56, 18, 11, 53, 0)
s = 6: (0, 12, 30, 30, 26, 67, 22, 85, 17, 16, 44, 0)
s = 7: (0, 6, 56, 22, 18, 42, 20, 77, 21, 18, 70, 0)
s = 8: (0, 9, 32, 39, 26, 67, 21, 49, 15, 15, 56, 0)
s = 9: (0, 11, 47, 25, 27, 46, 18, 82, 11, 9, 65, 0)
s = 10: (0, 6, 33, 24, 26, 34, 28, 63, 12, 9, 59, 0)
s = 11: (0, 15, 36, 23, 24, 78, 27, 70, 15, 13, 51, 0)
s = 12: (0, 9, 38, 48, 15, 40, 13, 41, 10, 12, 88, 0)
s = 13: (0, 11, 46, 20, 21, 82, 22, 81, 15, 11, 41, 0)
s = 14: (0, 9, 41, 30, 14, 64, 11, 70, 11, 9, 64, 0)
s = 15: (0, 8, 47, 21, 18, 63, 13, 52, 12, 14, 43, 0)
s = 16: (0, 9, 49, 24, 20, 50, 29, 40, 16, 15, 51, 0)
s = 17: (0, 8, 42, 30, 15, 35, 15, 53, 21, 20, 78, 0)
s = 18: (0, 12, 71, 38, 30, 35, 26, 55, 10, 16, 35, 0)
s = 19: (0, 6, 66, 37, 18, 51, 22, 65, 11, 17, 48, 0)
s = 20: (0, 13, 38, 34, 16, 72, 12, 58, 23, 21, 52, 0)
s = 21: (0, 13, 41, 25, 18, 57, 14, 44, 12, 21, 37, 0)
s = 22: (0, 11, 66, 21, 25, 37, 15, 68, 10, 15, 53, 0)
s = 23: (0, 10, 34, 27, 26, 36, 22, 114, 16, 14, 48, 0)
s = 24: (0, 10, 44, 40, 25, 42, 21, 49, 18, 14, 78, 0)
s = 25: (0, 12, 60, 39, 22, 53, 17, 42, 14, 13, 44, 0)
s = 26: (0, 6, 41, 38, 24, 49, 17, 41, 15, 13, 84, 0)
s = 27: (0, 9, 33, 25, 32, 48, 23, 66, 14, 16, 38, 0)
s = 28: (0, 16, 31, 30, 11, 43, 14, 81, 14, 14, 50, 0)
s = 29: (0, 9, 39, 24, 28, 48, 22, 74, 14, 25, 46, 0)
s = 30: (0, 9, 42, 27, 17, 52, 12, 83, 18, 12, 47, 0)
s = 31: (0, 6, 31, 22, 15, 37, 24, 64, 15, 11, 62, 0)
s = 32: (0, 8, 47, 30, 19, 52, 12, 96, 14, 8, 35, 0)
s = 33: (0, 7, 48, 29, 16, 72, 19, 106, 15, 21, 53, 0)
s = 34: (0, 7, 56, 28, 24, 58, 14, 59, 19, 13, 88, 0)
s = 35: (0, 6, 41, 29, 27, 59, 27, 94, 19, 12, 60, 0)
s = 36: (0, 12, 55, 23, 12, 53, 16, 62, 15, 14, 42, 0)
s = 37: (0, 11, 55, 34, 13, 37, 22, 94, 15, 14, 59, 0)
s = 38: (0, 8, 32, 28, 15, 49, 15, 52, 22, 13, 32, 0)
s = 39: (0, 12, 68, 35, 22, 40, 13, 56, 24, 15, 54, 0)
s = 40: (0, 13, 61, 30, 20, 64, 12, 36, 11, 16, 69, 0)
s = 41: (0, 18, 49, 40, 19, 66, 18, 39, 11, 8, 84, 0)
s = 42: (0, 12, 34, 18, 20, 64, 15, 56, 13, 17, 55, 0)
s = 43: (0, 12, 44, 27, 21, 47, 16, 78, 12, 13, 73, 0)
s = 44: (0, 8, 30, 36, 28, 67, 11, 63, 11, 18, 86, 0)
s = 45: (0, 14, 31, 27, 12, 69, 15, 52, 9, 9, 38, 0)
s = 46: (0, 9, 28, 35, 20, 75, 16, 75, 18, 11, 33, 0)
s = 47: (0, 8, 66, 35, 15, 48, 20, 54, 11, 8, 41, 0)
s = 48: (0, 8, 56, 24, 18, 42, 23, 43, 10, 12, 56, 0)
s = 49: (0, 10, 33, 41, 18, 87, 17, 71, 15, 18, 44, 0)
s = 50: (0, 9, 28, 25, 23, 41, 10, 62, 19, 14, 42, 0)
s = 51: (0, 12, 37, 24, 27, 54, 12, 79, 12, 12, 58, 0)
s = 52: (0, 9, 67, 46, 20, 89, 13, 41, 8, 16, 52, 0)
s = 53: (0, 14, 50, 20, 17, 48, 21, 65, 15, 12, 81, 0)
s = 54: (0, 8, 46, 29, 21, 50, 19, 83, 13, 14, 74, 0)
s = 55: (0, 11, 37, 28, 11, 45, 15, 76, 10, 18, 64, 0)
s = 56: (0, 7, 45, 49, 18, 37, 18, 66, 15, 9, 43, 0)
s = 57: (0, 11, 65, 39, 14, 45, 11, 56, 22, 13, 43, 0)
s = 58: (0, 9, 40, 21, 25, 46, 28, 41, 12, 13, 37, 0)
s = 59: (0, 17, 50, 34, 25, 60, 11, 83, 12, 21, 43, 0)
s = 60: (0, 8, 44, 36, 18, 40, 21, 73, 15, 14, 43, 0)
s = 61: (0, 8, 61, 24, 29, 49, 21, 34, 10, 27, 42, 0)
s = 62: (0, 7, 37, 32, 16, 41, 13, 65, 16, 12, 70, 0)
s = 63: (0, 7, 56, 35, 17, 36, 19, 65, 11, 12, 41, 0)
s = 64: (0, 9, 34, 29, 23, 35, 12, 60, 19, 13, 65, 0)
s = 65: (0, 8, 40, 22, 13, 48, 14, 72, 11, 20, 75, 0)
s = 66: (0, 10, 43, 28, 21, 75, 17, 89, 8, 17, 71, 0)
s = 67: (0, 7, 29, 31, 23, 47, 26, 58, 20, 10, 66, 0)
s = 68: (0, 14, 39, 27, 26, 59, 26, 84, 18, 11, 65, 0)
s = 69: (0, 11, 28, 35, 25, 61, 24, 73, 17, 12, 87, 0)
s = 70: (0, 7, 47, 32, 15, 62, 29, 77, 9, 16, 59, 0)
s = 71: (0, 7, 30, 38, 35, 63, 19, 100, 17, 10, 45, 0)
s = 72: (0, 12, 35, 44, 23, 47, 14, 79, 11, 20, 56, 0)
s = 73: (0, 18, 29, 23, 16, 59, 17, 69, 15, 10, 51, 0)
s = 74: (0, 9, 53, 49, 18, 81, 25, 63, 19, 15, 49, 0)
s = 75: (0, 15, 51, 45, 20, 76, 18, 51, 20, 20, 53, 0)
s = 76: (0, 14, 36, 31, 18, 53, 17, 38, 15, 25, 36, 0)
s = 77: (0, 12, 57, 37, 22, 86, 13, 43, 12, 10, 47, 0)
s = 78: (0, 18, 61, 24, 17, 60, 15, 49, 13, 12, 65, 0)
s = 79: (0, 8, 48, 19, 18, 58, 26, 83, 16, 17, 42, 0)
s = 80: (0, 15, 58, 36, 13, 59, 20, 75, 14, 17, 58, 0)
s = 81: (0, 14, 79, 22, 14, 46, 20, 52, 11, 13, 33, 0)
s = 82: (0, 9, 29, 34, 22, 35, 12, 66, 9, 23, 74, 0)
s = 83: (0, 15, 42, 42, 23, 82, 24, 62, 20, 17, 68, 0)
s = 84: (0, 8, 52, 37, 17, 83, 25, 58, 14, 14, 67, 0)
s = 85: (0, 10, 41, 28, 14, 46, 13, 46, 21, 16, 42, 0)
s = 86: (0, 10, 67, 27, 15, 71, 18, 58, 19, 21, 41, 0)
s = 87: (0, 13, 63, 36, 26, 52, 18, 53, 10, 12, 45, 0)
s = 88: (0, 9, 49, 44, 27, 37, 18, 48, 11, 14, 49, 0)
s = 89: (0, 12, 44, 31, 27, 86, 25, 76, 12, 15, 60, 0)
s = 90: (0, 12, 34, 30, 23, 61, 12, 62, 15, 17, 31, 0)
s = 91: (0, 14, 58, 26, 15, 42, 17, 81, 14, 18, 75, 0)
s = 92: (0, 10, 28, 20, 19, 35, 22, 63, 15, 10, 43, 0)
s = 93: (0, 11, 46, 48, 18, 46, 16, 61, 9, 12, 67, 0)
s = 94: (0, 8, 44, 24, 13, 55, 29, 85, 21, 25, 40, 0)
s = 95: (0, 16, 33, 44, 17, 56, 19, 71, 14, 22, 55, 0)
s = 96: (0, 8, 41, 19, 21, 36, 14, 63, 20, 21, 39, 0)
s = 97: (0, 14, 66, 41, 24, 80, 18, 67, 10, 16, 53, 0)
s = 98: (0, 10, 66, 28, 16, 45, 15, 51, 10, 15, 66, 0)
s = 99: (0, 7, 52, 40, 19, 43, 17, 54, 14, 9, 80, 0)
s = 100: (0, 10, 51, 21, 17, 110, 13, 39, 10, 11, 53, 0)
s = 101: (0, 15, 36, 33, 20, 76, 12, 41, 25, 12, 55, 0)
s = 102: (0, 10, 42, 36, 30, 92, 19, 60, 23, 16, 87, 0)
s = 103: (0, 13, 40, 26, 22, 42, 17, 50, 18, 10, 33, 0)
s = 104: (0, 8, 65, 30, 13, 69, 24, 50, 11, 12, 64, 0)
s = 105: (0, 9, 78, 40, 26, 52, 16, 59, 13, 12, 42, 0)
s = 106: (0, 11, 35, 20, 17, 57, 20, 79, 17, 16, 57, 0)
s = 107: (0, 8, 61, 43, 20, 48, 18, 48, 26, 16, 67, 0)
s = 108: (0, 11, 52, 34, 14, 37, 19, 67, 15, 15, 52, 0)
s = 109: (0, 11, 51, 18, 15, 50, 15, 104, 23, 11, 77, 0)
s = 110: (0, 9, 50, 20, 21, 64, 23, 64, 12, 23, 70, 0)
s = 111: (0, 13, 40, 29, 18, 52, 22, 64, 12, 13, 73, 0)
s = 112: (0, 7, 29, 23, 20, 47, 21, 82, 15, 11, 71, 0)
s = 113: (0, 6, 57, 31, 13, 43, 14, 39, 9, 11, 74, 0)
s = 114: (0, 15, 49, 32, 19, 50, 18, 44, 13, 12, 59, 0)
s = 115: (0, 16, 75, 39, 13, 56, 30, 44, 17, 17, 42, 0)
s = 116: (0, 13, 48, 16, 17, 83, 29, 65, 23, 15, 56, 0)
s = 117: (0, 9, 51, 28, 28, 45, 17, 90, 12, 10, 47, 0)
s = 118: (0, 8, 41, 36, 18, 35, 13, 75, 17, 26, 64, 0)
s = 119: (0, 9, 49, 22, 14, 32, 10, 71, 13, 13, 34, 0)
s = 120: (0, 12, 27, 39, 21, 44, 14, 41, 21, 18, 49, 0)
s = 121: (0, 8, 29, 50, 22, 44, 14, 43, 15, 14, 44, 0)
s = 122: (0, 11, 58, 25, 14, 33, 20, 44, 11, 14, 45, 0)
s = 123: (0, 9, 64, 24, 12, 49, 18, 61, 17, 12, 74, 0)
s = 124: (0, 12, 35, 28, 20, 75, 18, 57, 8, 20, 48, 0)
s = 125: (0, 10, 48, 31, 16, 66, 15, 48, 13, 9, 49, 0)
s = 126: (0, 8, 38, 36, 16, 43, 12, 104, 17, 22, 57, 0)
s = 127: (0, 9, 36, 30, 29, 77, 17, 60, 12, 13, 48, 0)
s = 128: (0, 9, 34, 22, 22, 67, 24, 83, 16, 13, 65, 0)
s = 129: (0, 9, 43, 23, 18, 77, 16, 36, 13, 19, 72, 0)
s = 130: (0, 11, 34, 53, 28, 34, 14, 66, 12, 10, 51, 0)
s = 131: (0, 15, 48, 36, 12, 67, 23, 42, 25, 13, 81, 0)
s = 132: (0, 7, 32, 32, 25, 41, 30, 69, 11, 16, 66, 0)
s = 133: (0, 12, 57, 35, 11, 33, 19, 53, 18, 14, 39, 0)
s = 134: (0, 12, 62, 41, 16, 57, 22, 103, 13, 9, 39, 0)
s = 135: (0, 7, 41, 21, 22, 75, 14, 54, 12, 13, 38, 0)
s = 136: (0, 9, 40, 34, 16, 53, 10, 57, 10, 10, 60, 0)
s = 137: (0, 15, 62, 18, 14, 55, 19, 55, 11, 13, 74, 0)
s = 138: (0, 6, 54, 29, 17, 55, 17, 62, 11, 19, 60, 0)
s = 139: (0, 8, 59, 37, 16, 44, 23, 43, 14, 12, 66, 0)
s = 140: (0, 12, 85, 32, 18, 84, 13, 77, 16, 23, 43, 0)
s = 141: (0, 10, 31, 31, 22, 81, 26, 41, 14, 12, 69, 0)
s = 142: (0, 11, 48, 35, 18, 34, 15, 53, 19, 12, 79, 0)
s = 143: (0, 12, 62, 52, 30, 34, 25, 84, 21, 18, 49, 0)
s = 144: (0, 11, 89, 32, 30, 44, 25, 41, 13, 22, 49, 0)
s = 145: (0, 13, 49, 19, 13, 95, 19, 60, 19, 11, 75, 0)
s = 146: (0, 7, 42, 26, 16, 39, 21, 123, 9, 14, 58, 0)
s = 147: (0, 9, 64, 20, 32, 49, 24, 50, 11, 13, 59, 0)
s = 148: (0, 14, 44, 28, 18, 64, 12, 47, 9, 16, 48, 0)
s = 149: (0, 12, 43, 23, 18, 84, 21, 47, 13, 12, 77, 0)
s = 150: (0, 17, 29, 19, 23, 47, 31, 71, 11, 21, 54, 0)
s = 151: (0, 10, 60, 25, 15, 47, 16, 94, 11, 20, 52, 0)
s = 152: (0, 7, 30, 24, 14, 64, 18, 61, 15, 13, 52, 0)
s = 153: (0, 7, 45, 21, 21, 56, 21, 37, 18, 16, 59, 0)
s = 154: (0, 13, 80, 22, 26, 39, 18, 66, 11, 17, 86, 0)
s = 155: (0, 11, 75, 20, 22, 79, 18, 39, 10, 11, 74, 0)
s = 156: (0, 10, 35, 44, 26, 39, 24, 55, 15, 17, 80, 0)
s = 157: (0, 10, 34, 50, 19, 79, 18, 47, 14, 17, 71, 0)
s = 158: (0, 19, 45, 38, 29, 71, 26, 106, 22, 10, 60, 0)
s = 159: (0, 11, 52, 37, 18, 34, 31, 81, 14, 12, 50, 0)
s = 160: (0, 13, 59, 29, 16, 70, 18, 53, 13, 14, 52, 0)
s = 161: (0, 14, 43, 31, 33, 61, 20, 80, 20, 17, 83, 0)
s = 162: (0, 14, 53, 34, 20, 42, 13, 93, 24, 14, 108, 0)
s = 163: (0, 13, 26, 17, 26, 66, 13, 45, 13, 12, 70, 0)
s = 164: (0, 11, 49, 34, 17, 50, 30, 51, 14, 15, 64, 0)
s = 165: (0, 6, 59, 26, 28, 33, 22, 69, 15, 13, 52, 0)
s = 166: (0, 12, 45, 20, 18, 65, 13, 77, 14, 14, 67, 0)
s = 167: (0, 8, 32, 32, 15, 34, 12, 68, 13, 17, 48, 0)
s = 168: (0, 12, 45, 31, 23, 48, 20, 58, 17, 10, 34, 0)
s = 169: (0, 8, 53, 32, 26, 53, 17, 84, 14, 20, 110, 0)
s = 170: (0, 15, 49, 31, 32, 60, 23, 114, 18, 15, 47, 0)
s = 171: (0, 9, 74, 59, 12, 58, 15, 70, 14, 12, 45, 0)
s = 172: (0, 13, 46, 34, 36, 41, 23, 49, 11, 16, 33, 0)
s = 173: (0, 12, 37, 29, 20, 52, 20, 40, 15, 10, 67, 0)
s = 174: (0, 7, 69, 21, 20, 52, 16, 61, 15, 10, 45, 0)
s = 175: (0, 13, 35, 25, 18, 56, 18, 36, 14, 20, 59, 0)
s = 176: (0, 10, 45, 50, 20, 69, 15, 73, 9, 11, 45, 0)
s = 177: (0, 11, 45, 23, 26, 51, 24, 61, 10, 15, 48, 0)
s = 178: (0, 15, 55, 20, 19, 42, 14, 55, 20, 21, 87, 0)
s = 179: (0, 9, 58, 23, 22, 64, 18, 56, 13, 14, 87, 0)
s = 180: (0, 6, 27, 26, 18, 88, 16, 90, 14, 15, 34, 0)
s = 181: (0, 11, 68, 24, 29, 33, 21, 59, 13, 12, 53, 0)
s = 182: (0, 12, 55, 40, 19, 46, 27, 47, 14, 11, 45, 0)
s = 183: (0, 9, 32, 33, 25, 61, 23, 82, 12, 11, 61, 0)
s = 184: (0, 12, 58, 28, 18, 43, 20, 85, 13, 15, 42, 0)
s = 185: (0, 9, 48, 27, 14, 78, 19, 44, 17, 12, 91, 0)
s = 186: (0, 9, 34, 38, 18, 86, 20, 63, 16, 11, 62, 0)
s = 187: (0, 12, 45, 28, 21, 49, 18, 61, 11, 14, 82, 0)
s = 188: (0, 13, 42, 37, 23, 47, 12, 50, 14, 14, 61, 0)
s = 189: (0, 14, 56, 30, 22, 60, 17, 79, 19, 10, 46, 0)
s = 190: (0, 12, 80, 35, 18, 58, 12, 51, 16, 17, 59, 0)
s = 191: (0, 8, 35, 28, 18, 85, 21, 56, 12, 18, 62, 0)
s = 192: (0, 8, 68, 20, 14, 89, 24, 65, 14, 13, 34, 0)
s = 193: (0, 8, 57, 35, 22, 44, 19, 90, 17, 23, 49, 0)
s = 194: (0, 9, 62, 40, 22, 68, 29, 77, 10, 17, 65, 0)
s = 195: (0, 14, 47, 41, 18, 52, 12, 81, 21, 8, 39, 0)
s = 196: (0, 10, 51, 24, 21, 60, 13, 61, 22, 18, 51, 0)
s = 197: (0, 8, 36, 25, 35, 42, 19, 62, 13, 14, 70, 0)
s = 198: (0, 14, 57, 33, 19, 59, 14, 78, 12, 16, 33, 0)
s = 199: (0, 8, 41, 38, 29, 71, 16, 73, 15, 13, 38, 0)
s = 200: (0, 10, 33, 18, 14, 42, 13, 61, 15, 19, 55, 0)
************************************************************************
ES/LS-VALUES:
jobnr.   ES(i)    LS(i)
------------------------------------------------------------------------
  0        0        0
  1        0       69
  2        0       43
  3        0       51
  4        5       53
  5        5       49
  6        5       63
  7       12       57
  8        8       73
  9        8       73
 10       21       67
 11       28       75
************************************************************************
BIG-M-VALUES:
M1 = 18, M2 = 123
************************************************************************
